GLPSOL--GLPK LP/MIP Solver 5.0
Parameter(s) specified in the command line:
 --lp ../modeles/2_189.lp --log 2_189.log
Reading problem data from '../modeles/2_189.lp'...
387 rows, 760 columns, 2656 non-zeros
378 integer variables, all of which are binary
1155 lines were read
GLPK Integer Optimizer 5.0
387 rows, 760 columns, 2656 non-zeros
378 integer variables, all of which are binary
Preprocessing...
372 constraint coefficient(s) were reduced
387 rows, 758 columns, 2654 non-zeros
378 integer variables, all of which are binary
Scaling...
 A: min|aij| =  1.120e-04  max|aij| =  4.000e+00  ratio =  3.572e+04
GM: min|aij| =  7.274e-02  max|aij| =  1.375e+01  ratio =  1.890e+02
EQ: min|aij| =  5.291e-03  max|aij| =  1.000e+00  ratio =  1.890e+02
2N: min|aij| =  3.583e-03  max|aij| =  1.747e+00  ratio =  4.875e+02
Constructing initial basis...
Size of triangular part is 387
Solving LP relaxation...
GLPK Simplex Optimizer 5.0
387 rows, 758 columns, 2654 non-zeros
      0: obj =   4.000000000e+00 inf =   9.500e+00 (5)
     25: obj =   4.999020157e-01 inf =   0.000e+00 (0)
*   115: obj =  -1.414161456e+00 inf =   8.949e-16 (0)
OPTIMAL LP SOLUTION FOUND
Integer optimization begins...
Long-step dual simplex will be used
+   115: mip =     not found yet >=              -inf        (1; 0)
+   147: >>>>>  -1.414161456e+00 >=  -1.414161456e+00 < 0.1% (33; 0)
+   147: mip =  -1.414161456e+00 >=     tree is empty   0.0% (0; 65)
INTEGER OPTIMAL SOLUTION FOUND
Time used:   0.0 secs
Memory used: 1.1 Mb (1181524 bytes)
